Route #1: 22 92 102 90 26 52 33
Route #2: 24 104 12 9 101 103 53 76
Route #3: 44 15 60 51 100 45 96
Route #4: 5 87 43 28 93 97 66
Route #5: 46 79 37 27 19 56 25
Route #6: 71 49 67 77 85 21 99
Route #7: 83 2 48 8 36 88 86 18
Route #8: 41 10 16 20 35 59 95 68
Route #9: 47 65 4 30 38 89 32 73
Route #10: 61 80 70 6 81 50 39
Route #11: 42 98 23 3 55 91 58 14
Route #12: 54 13 40 31 17 69 105 64 94 63
Route #13: 82 57 11 74 34 72 29
Route #14: 1 84 75 7 78 62
Cost 27484
